20
5
185433
0
0
8 11 10 14 15
1
0
50 56 56 38 59
2
0
10 10 5 9 6
3
0
4 4 5 2 3
4
0
9 7 13 10 7
5
0
25 20 17 16 14
6
0
66 91 64 83 77
7
0
30 18 21 18 37
8
0
53 55 64 49 47
9
0
164 129 160 126 149
10
0
51 45 41 53 45
11
0
1 1 2 1 1
12
0
1 2 2 2 2
13
0
36 30 28 25 33
14
0
187 159 181 214 185
15
0
31 26 20 24 30
16
0
36 32 32 47 54
17
0
19 20 15 17 22
18
0
36 46 37 51 41
19
0
70 66 57 56 40
